Gurobi 12.0.3:   lim:time = 14400

  mip:bestbound = 1

Set parameter LogToConsole to value 1

  tech:outlev = 1

Set parameter Cuts to value 3

  cut:cuts = 3

Set parameter Presolve to value 2

  pre:solve = 2

Set parameter MIPFocus to value 2

  mip:focus = 2

Set parameter Symmetry to value 2

  mip:symmetry = 2

Set parameter InfUnbdInfo to value 1

Gurobi Optimizer version 12.0.3 build v12.0.3rc0 (win64 - Windows 10.0 (19045.2))



CPU model: Intel(R) Core(TM) i7-10700 CPU @ 2.90GHz, instruction set [SSE2|AVX|AVX2]

Thread count: 8 physical cores, 16 logical processors, using up to 16 threads



Non-default parameters:

TimeLimit  14400

MIPFocus  2

Symmetry  2

Cuts  3

InfUnbdInfo  1

Presolve  2



Optimize a model with 358 rows, 693 columns and 3926 nonzeros

Model fingerprint: 0x730dcde6

Model has 3 quadratic constraints

Variable types: 36 continuous, 657 integer (0 binary)

Coefficient statistics:

  Matrix range     [1e+00, 1e+05]

  QMatrix range    [1e+00, 1e+00]

  QLMatrix range   [1e+01, 1e+01]

  Objective range  [3e+00, 1e+02]

  Bounds range     [1e+00, 1e+02]

  RHS range        [1e+00, 1e+05]

  QRHS range       [1e+02, 1e+02]

Presolve removed 32 rows and 71 columns

Presolve time: 0.14s

Presolved: 713 rows, 1006 columns, 6052 nonzeros

Variable types: 13 continuous, 993 integer (790 binary)

Found heuristic solution: objective 632.0800000

Root relaxation presolve removed 17 rows and 0 columns

Root relaxation presolved: 504 rows, 815 columns, 7363 nonzeros





Root relaxation: objective 8.095254e+01, 124 iterations, 0.01 seconds (0.01 work units)



    Nodes    |    Current Node    |     Objective Bounds      |     Work

 Expl Unexpl |  Obj  Depth IntInf | Incumbent    BestBd   Gap | It/Node Time



     0     0   80.95254    0   40  632.08000   80.95254  87.2%     -    0s

H    0     0                     530.0000000  121.69556  77.0%     -    0s

H    0     0                     409.9900000  121.69556  70.3%     -    0s

     0     0  129.08049    0   58  409.99000  129.08049  68.5%     -    0s

     0     0  129.08049    0   54  409.99000  129.08049  68.5%     -    0s

     0     0  129.08049    0   46  409.99000  129.08049  68.5%     -    0s

H    0     0                     366.7900000  129.08049  64.8%     -    0s

H    0     0                     364.1100000  129.08139  64.5%     -    0s

H    0     0                     362.6800000  129.08139  64.4%     -    0s

H    0     0                     336.5100000  129.08139  61.6%     -    0s

     0     0  132.50046    0   29  336.51000  132.50046  60.6%     -    0s

     0     0  133.95000    0   24  336.51000  133.95000  60.2%     -    0s

     0     0  134.28500    0   48  336.51000  134.28500  60.1%     -    0s

     0     0  137.97000    0   33  336.51000  137.97000  59.0%     -    0s

     0     0  137.97000    0   33  336.51000  137.97000  59.0%     -    0s

     0     2  137.97000    0   33  336.51000  137.97000  59.0%     -    0s

H  113   121                     321.9900000  137.97000  57.2%  12.1    1s

H  117   121                     302.5100000  137.97000  54.4%  12.2    1s

H  246   180                     285.0000000  138.03493  51.6%   9.7    1s

* 3179  1004              22     274.4600000  196.66514  28.3%  12.7    1s

H 3471  1007                     271.9300000  200.78500  26.2%  13.0    1s

H 3475   961                     267.2900000  203.30000  23.9%  13.1    1s

H 3983  1008                     267.1700000  232.50138  13.0%  13.2    3s

  4045  1060  261.65667   28   43  267.17000  240.96399  9.81%  14.4    5s



Cutting planes:

  Learned: 5

  Gomory: 12

  Cover: 8

  Implied bound: 31

  Projected implied bound: 7

  Clique: 21

  MIR: 23

  Mixing: 3

  StrongCG: 1

  Flow cover: 82

  GUB cover: 1

  Inf proof: 3

  Zero half: 24

  RLT: 2

  Relax-and-lift: 5



Explored 7242 nodes (112318 simplex iterations) in 6.20 seconds (4.49 work units)

Thread count was 16 (of 16 available processors)



Solution count 10: 267.17 267.29 271.93 ... 364.11



Optimal solution found (tolerance 1.00e-04)

Best objective 2.671700000000e+02, best bound 2.671700000000e+02, gap 0.0000%



AMPL MP initial flat model has 693 variables (0 integer, 657 binary);

Objectives: 1 linear; 

Constraints:  358 linear; 3 quadratic;



AMPL MP final model has 693 variables (0 integer, 657 binary);

Objectives: 1 linear; 

Constraints:  358 linear; 3 quadratic;





-----RESULTS INFO-----
running_time:  6.234
TC.best_bound:  267.17
TC:  267.16999999999996
MIP Gap (%):  2.1276123389904564e-14
=== Vehicle Routes ===
Vehicle 1: 0 → 3
Vehicle 1: 2 → 17
Vehicle 1: 3 → 13
Vehicle 1: 13 → 15
Vehicle 1: 15 → 2
Vehicle 2: 0 → 1
Vehicle 2: 1 → 17
Vehicle 3: 0 → 17

=== Full Vehicle Routes ===
Vehicle 1: 0 → 3 → 13 → 15 → 2 → 0 (88<100)
Vehicle 2: 0 → 1 → 0 (13<100)
Vehicle 3: 0 → 0 (0<100)
Arc used by MRT line: y variables:
Customer assigment to PL: u variables:
4 13
5 15
6 13
7 13
8 15
9 15
Node is served by regular vehicle: g variables:
1
2
3
13
15
Customer assigment to Home delivery: gm variables:
1
2
3
Node total demands: ntd variables:
1 13 1
2 13 1
3 12 1
7 0 0
8 0 0
9 0 0
16 0 0
10 0 0
11 0 0
12 0 0
13 45 1
14 0 0
15 18 1
Customer's demand delivered to PL: l variables:
4
5
6
7
8
9
Lockers load <= capacity:
0 <= 90
0 <= 83
0 <= 100
0 <= 70
45 <= 87
0 <= 73
18 <= 71
